3	25
662	779	738	640	726	865	896	99	654	729	773	54	996	218	703	975	960	41	691	345	520	960	83	610	907	
195	177	34	280	291	378	168	197	864	677	300	820	892	498	658	110	970	966	341	79	201	95	336	138	435	
1684	1684	1684	
